minimize
obj: 7 y_Supply("KENTON",_"SMR_0160"),VISALIA_ + 0.97 y_Supply("KENTON",_"SMR_0160"),SHELBYVILLE_ + 1.72 y_Supply("KENTON",_"SMR_0160"),CLARKSVILLE_ + 2.55 y_Supply("KENTON",_"SMR_0160"),PITTSTON_ + 7 y_Supply("KENTON",_"LHRDS016"),VISALIA_ + 0.97 y_Supply("KENTON",_"LHRDS016"),SHELBYVILLE_ + 1.72 y_Supply("KENTON",_"LHRDS016"),CLARKSVILLE_ + 2.55 y_Supply("KENTON",_"LHRDS016"),PITTSTON_ + 4.63 y_Supply("VISALIA",_"LHRDS016"),KENTON_ + 4.45 y_Supply("VISALIA",_"LHRDS016"),SHELBYVILLE_ + 6 y_Supply("VISALIA",_"LHRDS016"),CLARKSVILLE_ + 6.17 y_Supply("VISALIA",_"LHRDS016"),PITTSTON_ + 0.71 y_Supply("PITTSTON",_"LHRDS016"),KENTON_ + 3.8 y_Supply("PITTSTON",_"LHRDS016"),VISALIA_ + 1.23 y_Supply("PITTSTON",_"LHRDS016"),SHELBYVILLE_ + 1.41 y_Supply("PITTSTON",_"LHRDS016"),CLARKSVILLE_ + 4.63 y_Supply("VISALIA",_"SMR_0160"),KENTON_ + 4.45 y_Supply("VISALIA",_"SMR_0160"),SHELBYVILLE_ + 6 y_Supply("VISALIA",_"SMR_0160"),CLARKSVILLE_ + 6.17 y_Supply("VISALIA",_"SMR_0160"),PITTSTON_ + 1.7231031712300164 x_Lane("KENTON",_Cust("NORTH_AMERICAN_CORP.",_"GLENVIEW,_IL",_"PPD")),LHRDS016_ + 1.7231031712300164 x_Lane("KENTON",_Cust("NORTH_AMERICAN_CORP.",_"GLENVIEW,_IL",_"PPD")),SMR_0160_ + 4.8235424495943695 x_Lane("KENTON",_Cust("HT_BERRY",_"CANTON,_MA",_"PPD")),LHRDS016_ + 4.8235424495943695 x_Lane("KENTON",_Cust("HT_BERRY",_"CANTON,_MA",_"PPD")),SMR_0160_ + 14.347210354032452 x_Lane("KENTON",_Cust("CDC_STOCKTON,_CA",_"STOCKTON,_CA",_"PPD")),LHRDS016_ + 14.347210354032452 x_Lane("KENTON",_Cust("CDC_STOCKTON,_CA",_"STOCKTON,_CA",_"PPD")),SMR_0160_ + 13.005723108297547 x_Lane("VISALIA",_Cust("NORTH_AMERICAN_CORP.",_"GLENVIEW,_IL",_"PPD")),LHRDS016_ + 13.005723108297547 x_Lane("VISALIA",_Cust("NORTH_AMERICAN_CORP.",_"GLENVIEW,_IL",_"PPD")),SMR_0160_ + 18.966963433548102 x_Lane("VISALIA",_Cust("HT_BERRY",_"CANTON,_MA",_"PPD")),LHRDS016_ + 18.966963433548102 x_Lane("VISALIA",_Cust("HT_BERRY",_"CANTON,_MA",_"PPD")),SMR_0160_ + 1.0280609676986414 x_Lane("VISALIA",_Cust("CDC_STOCKTON,_CA",_"STOCKTON,_CA",_"PPD")),LHRDS016_ + 1.0280609676986414 x_Lane("VISALIA",_Cust("CDC_STOCKTON,_CA",_"STOCKTON,_CA",_"PPD")),SMR_0160_ + 1.4105481798795068 x_Lane("SHELBYVILLE",_Cust("NORTH_AMERICAN_CORP.",_"GLENVIEW,_IL",_"PPD")),LHRDS016_ + 1.4105481798795068 x_Lane("SHELBYVILLE",_Cust("NORTH_AMERICAN_CORP.",_"GLENVIEW,_IL",_"PPD")),SMR_0160_ + 6.936905627386069 x_Lane("SHELBYVILLE",_Cust("HT_BERRY",_"CANTON,_MA",_"PPD")),LHRDS016_ + 6.936905627386069 x_Lane("SHELBYVILLE",_Cust("HT_BERRY",_"CANTON,_MA",_"PPD")),SMR_0160_ + 12.665829586465032 x_Lane("SHELBYVILLE",_Cust("CDC_STOCKTON,_CA",_"STOCKTON,_CA",_"PPD")),LHRDS016_ + 12.665829586465032 x_Lane("SHELBYVILLE",_Cust("CDC_STOCKTON,_CA",_"STOCKTON,_CA",_"PPD")),SMR_0160_ + 2.564811966863515 x_Lane("CLARKSVILLE",_Cust("NORTH_AMERICAN_CORP.",_"GLENVIEW,_IL",_"PPD")),LHRDS016_ + 2.564811966863515 x_Lane("CLARKSVILLE",_Cust("NORTH_AMERICAN_CORP.",_"GLENVIEW,_IL",_"PPD")),SMR_0160_ + 7.077106355135988 x_Lane("CLARKSVILLE",_Cust("HT_BERRY",_"CANTON,_MA",_"PPD")),LHRDS016_ + 7.077106355135988 x_Lane("CLARKSVILLE",_Cust("HT_BERRY",_"CANTON,_MA",_"PPD")),SMR_0160_ + 13.822814233625616 x_Lane("CLARKSVILLE",_Cust("CDC_STOCKTON,_CA",_"STOCKTON,_CA",_"PPD")),LHRDS016_ + 13.822814233625616 x_Lane("CLARKSVILLE",_Cust("CDC_STOCKTON,_CA",_"STOCKTON,_CA",_"PPD")),SMR_0160_ + 4.39347457721904 x_Lane("PITTSTON",_Cust("NORTH_AMERICAN_CORP.",_"GLENVIEW,_IL",_"PPD")),LHRDS016_ + 4.39347457721904 x_Lane("PITTSTON",_Cust("NORTH_AMERICAN_CORP.",_"GLENVIEW,_IL",_"PPD")),SMR_0160_ + 1.88385174331902 x_Lane("PITTSTON",_Cust("HT_BERRY",_"CANTON,_MA",_"PPD")),LHRDS016_ + 1.88385174331902 x_Lane("PITTSTON",_Cust("HT_BERRY",_"CANTON,_MA",_"PPD")),SMR_0160_ + 17.01758176002146 x_Lane("PITTSTON",_Cust("CDC_STOCKTON,_CA",_"STOCKTON,_CA",_"PPD")),LHRDS016_ + 17.01758176002146 x_Lane("PITTSTON",_Cust("CDC_STOCKTON,_CA",_"STOCKTON,_CA",_"PPD")),SMR_0160_
subject to
supply_con_Supply("KENTON",_"SMR_0160")_: 1 y_Supply("KENTON",_"SMR_0160"),KENTON_ + 1 y_Supply("KENTON",_"SMR_0160"),VISALIA_ + 1 y_Supply("KENTON",_"SMR_0160"),SHELBYVILLE_ + 1 y_Supply("KENTON",_"SMR_0160"),CLARKSVILLE_ + 1 y_Supply("KENTON",_"SMR_0160"),PITTSTON_ <= 572
supply_con_Supply("KENTON",_"LHRDS016")_: 1 y_Supply("KENTON",_"LHRDS016"),KENTON_ + 1 y_Supply("KENTON",_"LHRDS016"),VISALIA_ + 1 y_Supply("KENTON",_"LHRDS016"),SHELBYVILLE_ + 1 y_Supply("KENTON",_"LHRDS016"),CLARKSVILLE_ + 1 y_Supply("KENTON",_"LHRDS016"),PITTSTON_ <= 468
supply_con_Supply("VISALIA",_"LHRDS016")_: 1 y_Supply("VISALIA",_"LHRDS016"),KENTON_ + 1 y_Supply("VISALIA",_"LHRDS016"),VISALIA_ + 1 y_Supply("VISALIA",_"LHRDS016"),SHELBYVILLE_ + 1 y_Supply("VISALIA",_"LHRDS016"),CLARKSVILLE_ + 1 y_Supply("VISALIA",_"LHRDS016"),PITTSTON_ <= 17866.8
supply_con_Supply("PITTSTON",_"LHRDS016")_: 1 y_Supply("PITTSTON",_"LHRDS016"),KENTON_ + 1 y_Supply("PITTSTON",_"LHRDS016"),VISALIA_ + 1 y_Supply("PITTSTON",_"LHRDS016"),SHELBYVILLE_ + 1 y_Supply("PITTSTON",_"LHRDS016"),CLARKSVILLE_ + 1 y_Supply("PITTSTON",_"LHRDS016"),PITTSTON_ <= 423.6
supply_con_Supply("VISALIA",_"SMR_0160")_: 1 y_Supply("VISALIA",_"SMR_0160"),KENTON_ + 1 y_Supply("VISALIA",_"SMR_0160"),VISALIA_ + 1 y_Supply("VISALIA",_"SMR_0160"),SHELBYVILLE_ + 1 y_Supply("VISALIA",_"SMR_0160"),CLARKSVILLE_ + 1 y_Supply("VISALIA",_"SMR_0160"),PITTSTON_ <= 7440
maxopen_con: 1 r_KENTON_ + 1 r_VISALIA_ + 1 r_SHELBYVILLE_ + 1 r_CLARKSVILLE_ + 1 r_PITTSTON_ <= 5
avail_con_KENTON,Demand(Cust("CDC_STOCKTON,_CA",_"STOCKTON,_CA",_"PPD"),_"SMR_0160")_: 1 x_Lane("KENTON",_Cust("CDC_STOCKTON,_CA",_"STOCKTON,_CA",_"PPD")),SMR_0160_ - 7326 z_Lane("KENTON",_Cust("CDC_STOCKTON,_CA",_"STOCKTON,_CA",_"PPD"))_ <= 0
avail_con_VISALIA,Demand(Cust("CDC_STOCKTON,_CA",_"STOCKTON,_CA",_"PPD"),_"SMR_0160")_: 1 x_Lane("VISALIA",_Cust("CDC_STOCKTON,_CA",_"STOCKTON,_CA",_"PPD")),SMR_0160_ - 7326 z_Lane("VISALIA",_Cust("CDC_STOCKTON,_CA",_"STOCKTON,_CA",_"PPD"))_ <= 0
avail_con_SHELBYVILLE,Demand(Cust("CDC_STOCKTON,_CA",_"STOCKTON,_CA",_"PPD"),_"SMR_0160")_: 1 x_Lane("SHELBYVILLE",_Cust("CDC_STOCKTON,_CA",_"STOCKTON,_CA",_"PPD")),SMR_0160_ - 7326 z_Lane("SHELBYVILLE",_Cust("CDC_STOCKTON,_CA",_"STOCKTON,_CA",_"PPD"))_ <= 0
avail_con_CLARKSVILLE,Demand(Cust("CDC_STOCKTON,_CA",_"STOCKTON,_CA",_"PPD"),_"SMR_0160")_: 1 x_Lane("CLARKSVILLE",_Cust("CDC_STOCKTON,_CA",_"STOCKTON,_CA",_"PPD")),SMR_0160_ - 7326 z_Lane("CLARKSVILLE",_Cust("CDC_STOCKTON,_CA",_"STOCKTON,_CA",_"PPD"))_ <= 0
avail_con_PITTSTON,Demand(Cust("CDC_STOCKTON,_CA",_"STOCKTON,_CA",_"PPD"),_"SMR_0160")_: 1 x_Lane("PITTSTON",_Cust("CDC_STOCKTON,_CA",_"STOCKTON,_CA",_"PPD")),SMR_0160_ - 7326 z_Lane("PITTSTON",_Cust("CDC_STOCKTON,_CA",_"STOCKTON,_CA",_"PPD"))_ <= 0
avail_con_KENTON,Demand(Cust("HT_BERRY",_"CANTON,_MA",_"PPD"),_"LHRDS016")_: 1 x_Lane("KENTON",_Cust("HT_BERRY",_"CANTON,_MA",_"PPD")),LHRDS016_ - 204 z_Lane("KENTON",_Cust("HT_BERRY",_"CANTON,_MA",_"PPD"))_ <= 0
avail_con_VISALIA,Demand(Cust("HT_BERRY",_"CANTON,_MA",_"PPD"),_"LHRDS016")_: 1 x_Lane("VISALIA",_Cust("HT_BERRY",_"CANTON,_MA",_"PPD")),LHRDS016_ - 204 z_Lane("VISALIA",_Cust("HT_BERRY",_"CANTON,_MA",_"PPD"))_ <= 0
avail_con_SHELBYVILLE,Demand(Cust("HT_BERRY",_"CANTON,_MA",_"PPD"),_"LHRDS016")_: 1 x_Lane("SHELBYVILLE",_Cust("HT_BERRY",_"CANTON,_MA",_"PPD")),LHRDS016_ - 204 z_Lane("SHELBYVILLE",_Cust("HT_BERRY",_"CANTON,_MA",_"PPD"))_ <= 0
avail_con_CLARKSVILLE,Demand(Cust("HT_BERRY",_"CANTON,_MA",_"PPD"),_"LHRDS016")_: 1 x_Lane("CLARKSVILLE",_Cust("HT_BERRY",_"CANTON,_MA",_"PPD")),LHRDS016_ - 204 z_Lane("CLARKSVILLE",_Cust("HT_BERRY",_"CANTON,_MA",_"PPD"))_ <= 0
avail_con_PITTSTON,Demand(Cust("HT_BERRY",_"CANTON,_MA",_"PPD"),_"LHRDS016")_: 1 x_Lane("PITTSTON",_Cust("HT_BERRY",_"CANTON,_MA",_"PPD")),LHRDS016_ - 204 z_Lane("PITTSTON",_Cust("HT_BERRY",_"CANTON,_MA",_"PPD"))_ <= 0
avail_con_KENTON,Demand(Cust("NORTH_AMERICAN_CORP.",_"GLENVIEW,_IL",_"PPD"),_"LHRDS016")_: 1 x_Lane("KENTON",_Cust("NORTH_AMERICAN_CORP.",_"GLENVIEW,_IL",_"PPD")),LHRDS016_ - 698.4 z_Lane("KENTON",_Cust("NORTH_AMERICAN_CORP.",_"GLENVIEW,_IL",_"PPD"))_ <= 0
avail_con_VISALIA,Demand(Cust("NORTH_AMERICAN_CORP.",_"GLENVIEW,_IL",_"PPD"),_"LHRDS016")_: 1 x_Lane("VISALIA",_Cust("NORTH_AMERICAN_CORP.",_"GLENVIEW,_IL",_"PPD")),LHRDS016_ - 698.4 z_Lane("VISALIA",_Cust("NORTH_AMERICAN_CORP.",_"GLENVIEW,_IL",_"PPD"))_ <= 0
avail_con_SHELBYVILLE,Demand(Cust("NORTH_AMERICAN_CORP.",_"GLENVIEW,_IL",_"PPD"),_"LHRDS016")_: 1 x_Lane("SHELBYVILLE",_Cust("NORTH_AMERICAN_CORP.",_"GLENVIEW,_IL",_"PPD")),LHRDS016_ - 698.4 z_Lane("SHELBYVILLE",_Cust("NORTH_AMERICAN_CORP.",_"GLENVIEW,_IL",_"PPD"))_ <= 0
avail_con_CLARKSVILLE,Demand(Cust("NORTH_AMERICAN_CORP.",_"GLENVIEW,_IL",_"PPD"),_"LHRDS016")_: 1 x_Lane("CLARKSVILLE",_Cust("NORTH_AMERICAN_CORP.",_"GLENVIEW,_IL",_"PPD")),LHRDS016_ - 698.4 z_Lane("CLARKSVILLE",_Cust("NORTH_AMERICAN_CORP.",_"GLENVIEW,_IL",_"PPD"))_ <= 0
avail_con_PITTSTON,Demand(Cust("NORTH_AMERICAN_CORP.",_"GLENVIEW,_IL",_"PPD"),_"LHRDS016")_: 1 x_Lane("PITTSTON",_Cust("NORTH_AMERICAN_CORP.",_"GLENVIEW,_IL",_"PPD")),LHRDS016_ - 698.4 z_Lane("PITTSTON",_Cust("NORTH_AMERICAN_CORP.",_"GLENVIEW,_IL",_"PPD"))_ <= 0
avail_con_KENTON,Demand(Cust("NORTH_AMERICAN_CORP.",_"GLENVIEW,_IL",_"PPD"),_"SMR_0160")_: 1 x_Lane("KENTON",_Cust("NORTH_AMERICAN_CORP.",_"GLENVIEW,_IL",_"PPD")),SMR_0160_ - 606 z_Lane("KENTON",_Cust("NORTH_AMERICAN_CORP.",_"GLENVIEW,_IL",_"PPD"))_ <= 0
avail_con_VISALIA,Demand(Cust("NORTH_AMERICAN_CORP.",_"GLENVIEW,_IL",_"PPD"),_"SMR_0160")_: 1 x_Lane("VISALIA",_Cust("NORTH_AMERICAN_CORP.",_"GLENVIEW,_IL",_"PPD")),SMR_0160_ - 606 z_Lane("VISALIA",_Cust("NORTH_AMERICAN_CORP.",_"GLENVIEW,_IL",_"PPD"))_ <= 0
avail_con_SHELBYVILLE,Demand(Cust("NORTH_AMERICAN_CORP.",_"GLENVIEW,_IL",_"PPD"),_"SMR_0160")_: 1 x_Lane("SHELBYVILLE",_Cust("NORTH_AMERICAN_CORP.",_"GLENVIEW,_IL",_"PPD")),SMR_0160_ - 606 z_Lane("SHELBYVILLE",_Cust("NORTH_AMERICAN_CORP.",_"GLENVIEW,_IL",_"PPD"))_ <= 0
avail_con_CLARKSVILLE,Demand(Cust("NORTH_AMERICAN_CORP.",_"GLENVIEW,_IL",_"PPD"),_"SMR_0160")_: 1 x_Lane("CLARKSVILLE",_Cust("NORTH_AMERICAN_CORP.",_"GLENVIEW,_IL",_"PPD")),SMR_0160_ - 606 z_Lane("CLARKSVILLE",_Cust("NORTH_AMERICAN_CORP.",_"GLENVIEW,_IL",_"PPD"))_ <= 0
avail_con_PITTSTON,Demand(Cust("NORTH_AMERICAN_CORP.",_"GLENVIEW,_IL",_"PPD"),_"SMR_0160")_: 1 x_Lane("PITTSTON",_Cust("NORTH_AMERICAN_CORP.",_"GLENVIEW,_IL",_"PPD")),SMR_0160_ - 606 z_Lane("PITTSTON",_Cust("NORTH_AMERICAN_CORP.",_"GLENVIEW,_IL",_"PPD"))_ <= 0
avail_con_KENTON,Demand(Cust("HT_BERRY",_"CANTON,_MA",_"PPD"),_"SMR_0160")_: 1 x_Lane("KENTON",_Cust("HT_BERRY",_"CANTON,_MA",_"PPD")),SMR_0160_ - 80 z_Lane("KENTON",_Cust("HT_BERRY",_"CANTON,_MA",_"PPD"))_ <= 0
avail_con_VISALIA,Demand(Cust("HT_BERRY",_"CANTON,_MA",_"PPD"),_"SMR_0160")_: 1 x_Lane("VISALIA",_Cust("HT_BERRY",_"CANTON,_MA",_"PPD")),SMR_0160_ - 80 z_Lane("VISALIA",_Cust("HT_BERRY",_"CANTON,_MA",_"PPD"))_ <= 0
avail_con_SHELBYVILLE,Demand(Cust("HT_BERRY",_"CANTON,_MA",_"PPD"),_"SMR_0160")_: 1 x_Lane("SHELBYVILLE",_Cust("HT_BERRY",_"CANTON,_MA",_"PPD")),SMR_0160_ - 80 z_Lane("SHELBYVILLE",_Cust("HT_BERRY",_"CANTON,_MA",_"PPD"))_ <= 0
avail_con_CLARKSVILLE,Demand(Cust("HT_BERRY",_"CANTON,_MA",_"PPD"),_"SMR_0160")_: 1 x_Lane("CLARKSVILLE",_Cust("HT_BERRY",_"CANTON,_MA",_"PPD")),SMR_0160_ - 80 z_Lane("CLARKSVILLE",_Cust("HT_BERRY",_"CANTON,_MA",_"PPD"))_ <= 0
avail_con_PITTSTON,Demand(Cust("HT_BERRY",_"CANTON,_MA",_"PPD"),_"SMR_0160")_: 1 x_Lane("PITTSTON",_Cust("HT_BERRY",_"CANTON,_MA",_"PPD")),SMR_0160_ - 80 z_Lane("PITTSTON",_Cust("HT_BERRY",_"CANTON,_MA",_"PPD"))_ <= 0
avail_con_KENTON,Demand(Cust("CDC_STOCKTON,_CA",_"STOCKTON,_CA",_"PPD"),_"LHRDS016")_: 1 x_Lane("KENTON",_Cust("CDC_STOCKTON,_CA",_"STOCKTON,_CA",_"PPD")),LHRDS016_ - 17856 z_Lane("KENTON",_Cust("CDC_STOCKTON,_CA",_"STOCKTON,_CA",_"PPD"))_ <= 0
avail_con_VISALIA,Demand(Cust("CDC_STOCKTON,_CA",_"STOCKTON,_CA",_"PPD"),_"LHRDS016")_: 1 x_Lane("VISALIA",_Cust("CDC_STOCKTON,_CA",_"STOCKTON,_CA",_"PPD")),LHRDS016_ - 17856 z_Lane("VISALIA",_Cust("CDC_STOCKTON,_CA",_"STOCKTON,_CA",_"PPD"))_ <= 0
avail_con_SHELBYVILLE,Demand(Cust("CDC_STOCKTON,_CA",_"STOCKTON,_CA",_"PPD"),_"LHRDS016")_: 1 x_Lane("SHELBYVILLE",_Cust("CDC_STOCKTON,_CA",_"STOCKTON,_CA",_"PPD")),LHRDS016_ - 17856 z_Lane("SHELBYVILLE",_Cust("CDC_STOCKTON,_CA",_"STOCKTON,_CA",_"PPD"))_ <= 0
avail_con_CLARKSVILLE,Demand(Cust("CDC_STOCKTON,_CA",_"STOCKTON,_CA",_"PPD"),_"LHRDS016")_: 1 x_Lane("CLARKSVILLE",_Cust("CDC_STOCKTON,_CA",_"STOCKTON,_CA",_"PPD")),LHRDS016_ - 17856 z_Lane("CLARKSVILLE",_Cust("CDC_STOCKTON,_CA",_"STOCKTON,_CA",_"PPD"))_ <= 0
avail_con_PITTSTON,Demand(Cust("CDC_STOCKTON,_CA",_"STOCKTON,_CA",_"PPD"),_"LHRDS016")_: 1 x_Lane("PITTSTON",_Cust("CDC_STOCKTON,_CA",_"STOCKTON,_CA",_"PPD")),LHRDS016_ - 17856 z_Lane("PITTSTON",_Cust("CDC_STOCKTON,_CA",_"STOCKTON,_CA",_"PPD"))_ <= 0
openship_con_KENTON,Demand(Cust("CDC_STOCKTON,_CA",_"STOCKTON,_CA",_"PPD"),_"SMR_0160")_: 1 x_Lane("KENTON",_Cust("CDC_STOCKTON,_CA",_"STOCKTON,_CA",_"PPD")),SMR_0160_ - 7326 r_KENTON_ <= 0
openship_con_VISALIA,Demand(Cust("CDC_STOCKTON,_CA",_"STOCKTON,_CA",_"PPD"),_"SMR_0160")_: 1 x_Lane("VISALIA",_Cust("CDC_STOCKTON,_CA",_"STOCKTON,_CA",_"PPD")),SMR_0160_ - 7326 r_VISALIA_ <= 0
openship_con_SHELBYVILLE,Demand(Cust("CDC_STOCKTON,_CA",_"STOCKTON,_CA",_"PPD"),_"SMR_0160")_: 1 x_Lane("SHELBYVILLE",_Cust("CDC_STOCKTON,_CA",_"STOCKTON,_CA",_"PPD")),SMR_0160_ - 7326 r_SHELBYVILLE_ <= 0
openship_con_CLARKSVILLE,Demand(Cust("CDC_STOCKTON,_CA",_"STOCKTON,_CA",_"PPD"),_"SMR_0160")_: 1 x_Lane("CLARKSVILLE",_Cust("CDC_STOCKTON,_CA",_"STOCKTON,_CA",_"PPD")),SMR_0160_ - 7326 r_CLARKSVILLE_ <= 0
openship_con_PITTSTON,Demand(Cust("CDC_STOCKTON,_CA",_"STOCKTON,_CA",_"PPD"),_"SMR_0160")_: 1 x_Lane("PITTSTON",_Cust("CDC_STOCKTON,_CA",_"STOCKTON,_CA",_"PPD")),SMR_0160_ - 7326 r_PITTSTON_ <= 0
openship_con_KENTON,Demand(Cust("HT_BERRY",_"CANTON,_MA",_"PPD"),_"LHRDS016")_: 1 x_Lane("KENTON",_Cust("HT_BERRY",_"CANTON,_MA",_"PPD")),LHRDS016_ - 204 r_KENTON_ <= 0
openship_con_VISALIA,Demand(Cust("HT_BERRY",_"CANTON,_MA",_"PPD"),_"LHRDS016")_: 1 x_Lane("VISALIA",_Cust("HT_BERRY",_"CANTON,_MA",_"PPD")),LHRDS016_ - 204 r_VISALIA_ <= 0
openship_con_SHELBYVILLE,Demand(Cust("HT_BERRY",_"CANTON,_MA",_"PPD"),_"LHRDS016")_: 1 x_Lane("SHELBYVILLE",_Cust("HT_BERRY",_"CANTON,_MA",_"PPD")),LHRDS016_ - 204 r_SHELBYVILLE_ <= 0
openship_con_CLARKSVILLE,Demand(Cust("HT_BERRY",_"CANTON,_MA",_"PPD"),_"LHRDS016")_: 1 x_Lane("CLARKSVILLE",_Cust("HT_BERRY",_"CANTON,_MA",_"PPD")),LHRDS016_ - 204 r_CLARKSVILLE_ <= 0
openship_con_PITTSTON,Demand(Cust("HT_BERRY",_"CANTON,_MA",_"PPD"),_"LHRDS016")_: 1 x_Lane("PITTSTON",_Cust("HT_BERRY",_"CANTON,_MA",_"PPD")),LHRDS016_ - 204 r_PITTSTON_ <= 0
openship_con_KENTON,Demand(Cust("NORTH_AMERICAN_CORP.",_"GLENVIEW,_IL",_"PPD"),_"LHRDS016")_: 1 x_Lane("KENTON",_Cust("NORTH_AMERICAN_CORP.",_"GLENVIEW,_IL",_"PPD")),LHRDS016_ - 698.4 r_KENTON_ <= 0
openship_con_VISALIA,Demand(Cust("NORTH_AMERICAN_CORP.",_"GLENVIEW,_IL",_"PPD"),_"LHRDS016")_: 1 x_Lane("VISALIA",_Cust("NORTH_AMERICAN_CORP.",_"GLENVIEW,_IL",_"PPD")),LHRDS016_ - 698.4 r_VISALIA_ <= 0
openship_con_SHELBYVILLE,Demand(Cust("NORTH_AMERICAN_CORP.",_"GLENVIEW,_IL",_"PPD"),_"LHRDS016")_: 1 x_Lane("SHELBYVILLE",_Cust("NORTH_AMERICAN_CORP.",_"GLENVIEW,_IL",_"PPD")),LHRDS016_ - 698.4 r_SHELBYVILLE_ <= 0
openship_con_CLARKSVILLE,Demand(Cust("NORTH_AMERICAN_CORP.",_"GLENVIEW,_IL",_"PPD"),_"LHRDS016")_: 1 x_Lane("CLARKSVILLE",_Cust("NORTH_AMERICAN_CORP.",_"GLENVIEW,_IL",_"PPD")),LHRDS016_ - 698.4 r_CLARKSVILLE_ <= 0
openship_con_PITTSTON,Demand(Cust("NORTH_AMERICAN_CORP.",_"GLENVIEW,_IL",_"PPD"),_"LHRDS016")_: 1 x_Lane("PITTSTON",_Cust("NORTH_AMERICAN_CORP.",_"GLENVIEW,_IL",_"PPD")),LHRDS016_ - 698.4 r_PITTSTON_ <= 0
openship_con_KENTON,Demand(Cust("NORTH_AMERICAN_CORP.",_"GLENVIEW,_IL",_"PPD"),_"SMR_0160")_: 1 x_Lane("KENTON",_Cust("NORTH_AMERICAN_CORP.",_"GLENVIEW,_IL",_"PPD")),SMR_0160_ - 606 r_KENTON_ <= 0
openship_con_VISALIA,Demand(Cust("NORTH_AMERICAN_CORP.",_"GLENVIEW,_IL",_"PPD"),_"SMR_0160")_: 1 x_Lane("VISALIA",_Cust("NORTH_AMERICAN_CORP.",_"GLENVIEW,_IL",_"PPD")),SMR_0160_ - 606 r_VISALIA_ <= 0
openship_con_SHELBYVILLE,Demand(Cust("NORTH_AMERICAN_CORP.",_"GLENVIEW,_IL",_"PPD"),_"SMR_0160")_: 1 x_Lane("SHELBYVILLE",_Cust("NORTH_AMERICAN_CORP.",_"GLENVIEW,_IL",_"PPD")),SMR_0160_ - 606 r_SHELBYVILLE_ <= 0
openship_con_CLARKSVILLE,Demand(Cust("NORTH_AMERICAN_CORP.",_"GLENVIEW,_IL",_"PPD"),_"SMR_0160")_: 1 x_Lane("CLARKSVILLE",_Cust("NORTH_AMERICAN_CORP.",_"GLENVIEW,_IL",_"PPD")),SMR_0160_ - 606 r_CLARKSVILLE_ <= 0
openship_con_PITTSTON,Demand(Cust("NORTH_AMERICAN_CORP.",_"GLENVIEW,_IL",_"PPD"),_"SMR_0160")_: 1 x_Lane("PITTSTON",_Cust("NORTH_AMERICAN_CORP.",_"GLENVIEW,_IL",_"PPD")),SMR_0160_ - 606 r_PITTSTON_ <= 0
openship_con_KENTON,Demand(Cust("HT_BERRY",_"CANTON,_MA",_"PPD"),_"SMR_0160")_: 1 x_Lane("KENTON",_Cust("HT_BERRY",_"CANTON,_MA",_"PPD")),SMR_0160_ - 80 r_KENTON_ <= 0
openship_con_VISALIA,Demand(Cust("HT_BERRY",_"CANTON,_MA",_"PPD"),_"SMR_0160")_: 1 x_Lane("VISALIA",_Cust("HT_BERRY",_"CANTON,_MA",_"PPD")),SMR_0160_ - 80 r_VISALIA_ <= 0
openship_con_SHELBYVILLE,Demand(Cust("HT_BERRY",_"CANTON,_MA",_"PPD"),_"SMR_0160")_: 1 x_Lane("SHELBYVILLE",_Cust("HT_BERRY",_"CANTON,_MA",_"PPD")),SMR_0160_ - 80 r_SHELBYVILLE_ <= 0
openship_con_CLARKSVILLE,Demand(Cust("HT_BERRY",_"CANTON,_MA",_"PPD"),_"SMR_0160")_: 1 x_Lane("CLARKSVILLE",_Cust("HT_BERRY",_"CANTON,_MA",_"PPD")),SMR_0160_ - 80 r_CLARKSVILLE_ <= 0
openship_con_PITTSTON,Demand(Cust("HT_BERRY",_"CANTON,_MA",_"PPD"),_"SMR_0160")_: 1 x_Lane("PITTSTON",_Cust("HT_BERRY",_"CANTON,_MA",_"PPD")),SMR_0160_ - 80 r_PITTSTON_ <= 0
openship_con_KENTON,Demand(Cust("CDC_STOCKTON,_CA",_"STOCKTON,_CA",_"PPD"),_"LHRDS016")_: 1 x_Lane("KENTON",_Cust("CDC_STOCKTON,_CA",_"STOCKTON,_CA",_"PPD")),LHRDS016_ - 17856 r_KENTON_ <= 0
openship_con_VISALIA,Demand(Cust("CDC_STOCKTON,_CA",_"STOCKTON,_CA",_"PPD"),_"LHRDS016")_: 1 x_Lane("VISALIA",_Cust("CDC_STOCKTON,_CA",_"STOCKTON,_CA",_"PPD")),LHRDS016_ - 17856 r_VISALIA_ <= 0
openship_con_SHELBYVILLE,Demand(Cust("CDC_STOCKTON,_CA",_"STOCKTON,_CA",_"PPD"),_"LHRDS016")_: 1 x_Lane("SHELBYVILLE",_Cust("CDC_STOCKTON,_CA",_"STOCKTON,_CA",_"PPD")),LHRDS016_ - 17856 r_SHELBYVILLE_ <= 0
openship_con_CLARKSVILLE,Demand(Cust("CDC_STOCKTON,_CA",_"STOCKTON,_CA",_"PPD"),_"LHRDS016")_: 1 x_Lane("CLARKSVILLE",_Cust("CDC_STOCKTON,_CA",_"STOCKTON,_CA",_"PPD")),LHRDS016_ - 17856 r_CLARKSVILLE_ <= 0
openship_con_PITTSTON,Demand(Cust("CDC_STOCKTON,_CA",_"STOCKTON,_CA",_"PPD"),_"LHRDS016")_: 1 x_Lane("PITTSTON",_Cust("CDC_STOCKTON,_CA",_"STOCKTON,_CA",_"PPD")),LHRDS016_ - 17856 r_PITTSTON_ <= 0
demand_con_Demand(Cust("CDC_STOCKTON,_CA",_"STOCKTON,_CA",_"PPD"),_"SMR_0160")_: 1 x_Lane("KENTON",_Cust("CDC_STOCKTON,_CA",_"STOCKTON,_CA",_"PPD")),SMR_0160_ + 1 x_Lane("VISALIA",_Cust("CDC_STOCKTON,_CA",_"STOCKTON,_CA",_"PPD")),SMR_0160_ + 1 x_Lane("SHELBYVILLE",_Cust("CDC_STOCKTON,_CA",_"STOCKTON,_CA",_"PPD")),SMR_0160_ + 1 x_Lane("CLARKSVILLE",_Cust("CDC_STOCKTON,_CA",_"STOCKTON,_CA",_"PPD")),SMR_0160_ + 1 x_Lane("PITTSTON",_Cust("CDC_STOCKTON,_CA",_"STOCKTON,_CA",_"PPD")),SMR_0160_ = 7326
demand_con_Demand(Cust("HT_BERRY",_"CANTON,_MA",_"PPD"),_"LHRDS016")_: 1 x_Lane("KENTON",_Cust("HT_BERRY",_"CANTON,_MA",_"PPD")),LHRDS016_ + 1 x_Lane("VISALIA",_Cust("HT_BERRY",_"CANTON,_MA",_"PPD")),LHRDS016_ + 1 x_Lane("SHELBYVILLE",_Cust("HT_BERRY",_"CANTON,_MA",_"PPD")),LHRDS016_ + 1 x_Lane("CLARKSVILLE",_Cust("HT_BERRY",_"CANTON,_MA",_"PPD")),LHRDS016_ + 1 x_Lane("PITTSTON",_Cust("HT_BERRY",_"CANTON,_MA",_"PPD")),LHRDS016_ = 204
demand_con_Demand(Cust("NORTH_AMERICAN_CORP.",_"GLENVIEW,_IL",_"PPD"),_"LHRDS016")_: 1 x_Lane("KENTON",_Cust("NORTH_AMERICAN_CORP.",_"GLENVIEW,_IL",_"PPD")),LHRDS016_ + 1 x_Lane("VISALIA",_Cust("NORTH_AMERICAN_CORP.",_"GLENVIEW,_IL",_"PPD")),LHRDS016_ + 1 x_Lane("SHELBYVILLE",_Cust("NORTH_AMERICAN_CORP.",_"GLENVIEW,_IL",_"PPD")),LHRDS016_ + 1 x_Lane("CLARKSVILLE",_Cust("NORTH_AMERICAN_CORP.",_"GLENVIEW,_IL",_"PPD")),LHRDS016_ + 1 x_Lane("PITTSTON",_Cust("NORTH_AMERICAN_CORP.",_"GLENVIEW,_IL",_"PPD")),LHRDS016_ = 698.4
demand_con_Demand(Cust("NORTH_AMERICAN_CORP.",_"GLENVIEW,_IL",_"PPD"),_"SMR_0160")_: 1 x_Lane("KENTON",_Cust("NORTH_AMERICAN_CORP.",_"GLENVIEW,_IL",_"PPD")),SMR_0160_ + 1 x_Lane("VISALIA",_Cust("NORTH_AMERICAN_CORP.",_"GLENVIEW,_IL",_"PPD")),SMR_0160_ + 1 x_Lane("SHELBYVILLE",_Cust("NORTH_AMERICAN_CORP.",_"GLENVIEW,_IL",_"PPD")),SMR_0160_ + 1 x_Lane("CLARKSVILLE",_Cust("NORTH_AMERICAN_CORP.",_"GLENVIEW,_IL",_"PPD")),SMR_0160_ + 1 x_Lane("PITTSTON",_Cust("NORTH_AMERICAN_CORP.",_"GLENVIEW,_IL",_"PPD")),SMR_0160_ = 606
demand_con_Demand(Cust("HT_BERRY",_"CANTON,_MA",_"PPD"),_"SMR_0160")_: 1 x_Lane("KENTON",_Cust("HT_BERRY",_"CANTON,_MA",_"PPD")),SMR_0160_ + 1 x_Lane("VISALIA",_Cust("HT_BERRY",_"CANTON,_MA",_"PPD")),SMR_0160_ + 1 x_Lane("SHELBYVILLE",_Cust("HT_BERRY",_"CANTON,_MA",_"PPD")),SMR_0160_ + 1 x_Lane("CLARKSVILLE",_Cust("HT_BERRY",_"CANTON,_MA",_"PPD")),SMR_0160_ + 1 x_Lane("PITTSTON",_Cust("HT_BERRY",_"CANTON,_MA",_"PPD")),SMR_0160_ = 80
demand_con_Demand(Cust("CDC_STOCKTON,_CA",_"STOCKTON,_CA",_"PPD"),_"LHRDS016")_: 1 x_Lane("KENTON",_Cust("CDC_STOCKTON,_CA",_"STOCKTON,_CA",_"PPD")),LHRDS016_ + 1 x_Lane("VISALIA",_Cust("CDC_STOCKTON,_CA",_"STOCKTON,_CA",_"PPD")),LHRDS016_ + 1 x_Lane("SHELBYVILLE",_Cust("CDC_STOCKTON,_CA",_"STOCKTON,_CA",_"PPD")),LHRDS016_ + 1 x_Lane("CLARKSVILLE",_Cust("CDC_STOCKTON,_CA",_"STOCKTON,_CA",_"PPD")),LHRDS016_ + 1 x_Lane("PITTSTON",_Cust("CDC_STOCKTON,_CA",_"STOCKTON,_CA",_"PPD")),LHRDS016_ = 17856
inout_con_KENTON,LHRDS016_: 1 y_Supply("KENTON",_"LHRDS016"),KENTON_ + 1 y_Supply("VISALIA",_"LHRDS016"),KENTON_ + 1 y_Supply("PITTSTON",_"LHRDS016"),KENTON_ - 1 x_Lane("KENTON",_Cust("NORTH_AMERICAN_CORP.",_"GLENVIEW,_IL",_"PPD")),LHRDS016_ - 1 x_Lane("KENTON",_Cust("HT_BERRY",_"CANTON,_MA",_"PPD")),LHRDS016_ - 1 x_Lane("KENTON",_Cust("CDC_STOCKTON,_CA",_"STOCKTON,_CA",_"PPD")),LHRDS016_ = 0
inout_con_VISALIA,LHRDS016_: 1 y_Supply("KENTON",_"LHRDS016"),VISALIA_ + 1 y_Supply("VISALIA",_"LHRDS016"),VISALIA_ + 1 y_Supply("PITTSTON",_"LHRDS016"),VISALIA_ - 1 x_Lane("VISALIA",_Cust("NORTH_AMERICAN_CORP.",_"GLENVIEW,_IL",_"PPD")),LHRDS016_ - 1 x_Lane("VISALIA",_Cust("HT_BERRY",_"CANTON,_MA",_"PPD")),LHRDS016_ - 1 x_Lane("VISALIA",_Cust("CDC_STOCKTON,_CA",_"STOCKTON,_CA",_"PPD")),LHRDS016_ = 0
inout_con_SHELBYVILLE,LHRDS016_: 1 y_Supply("KENTON",_"LHRDS016"),SHELBYVILLE_ + 1 y_Supply("VISALIA",_"LHRDS016"),SHELBYVILLE_ + 1 y_Supply("PITTSTON",_"LHRDS016"),SHELBYVILLE_ - 1 x_Lane("SHELBYVILLE",_Cust("NORTH_AMERICAN_CORP.",_"GLENVIEW,_IL",_"PPD")),LHRDS016_ - 1 x_Lane("SHELBYVILLE",_Cust("HT_BERRY",_"CANTON,_MA",_"PPD")),LHRDS016_ - 1 x_Lane("SHELBYVILLE",_Cust("CDC_STOCKTON,_CA",_"STOCKTON,_CA",_"PPD")),LHRDS016_ = 0
inout_con_CLARKSVILLE,LHRDS016_: 1 y_Supply("KENTON",_"LHRDS016"),CLARKSVILLE_ + 1 y_Supply("VISALIA",_"LHRDS016"),CLARKSVILLE_ + 1 y_Supply("PITTSTON",_"LHRDS016"),CLARKSVILLE_ - 1 x_Lane("CLARKSVILLE",_Cust("NORTH_AMERICAN_CORP.",_"GLENVIEW,_IL",_"PPD")),LHRDS016_ - 1 x_Lane("CLARKSVILLE",_Cust("HT_BERRY",_"CANTON,_MA",_"PPD")),LHRDS016_ - 1 x_Lane("CLARKSVILLE",_Cust("CDC_STOCKTON,_CA",_"STOCKTON,_CA",_"PPD")),LHRDS016_ = 0
inout_con_PITTSTON,LHRDS016_: 1 y_Supply("KENTON",_"LHRDS016"),PITTSTON_ + 1 y_Supply("VISALIA",_"LHRDS016"),PITTSTON_ + 1 y_Supply("PITTSTON",_"LHRDS016"),PITTSTON_ - 1 x_Lane("PITTSTON",_Cust("NORTH_AMERICAN_CORP.",_"GLENVIEW,_IL",_"PPD")),LHRDS016_ - 1 x_Lane("PITTSTON",_Cust("HT_BERRY",_"CANTON,_MA",_"PPD")),LHRDS016_ - 1 x_Lane("PITTSTON",_Cust("CDC_STOCKTON,_CA",_"STOCKTON,_CA",_"PPD")),LHRDS016_ = 0
inout_con_KENTON,SMR_0160_: 1 y_Supply("KENTON",_"SMR_0160"),KENTON_ + 1 y_Supply("VISALIA",_"SMR_0160"),KENTON_ - 1 x_Lane("KENTON",_Cust("NORTH_AMERICAN_CORP.",_"GLENVIEW,_IL",_"PPD")),SMR_0160_ - 1 x_Lane("KENTON",_Cust("HT_BERRY",_"CANTON,_MA",_"PPD")),SMR_0160_ - 1 x_Lane("KENTON",_Cust("CDC_STOCKTON,_CA",_"STOCKTON,_CA",_"PPD")),SMR_0160_ = 0
inout_con_VISALIA,SMR_0160_: 1 y_Supply("KENTON",_"SMR_0160"),VISALIA_ + 1 y_Supply("VISALIA",_"SMR_0160"),VISALIA_ - 1 x_Lane("VISALIA",_Cust("NORTH_AMERICAN_CORP.",_"GLENVIEW,_IL",_"PPD")),SMR_0160_ - 1 x_Lane("VISALIA",_Cust("HT_BERRY",_"CANTON,_MA",_"PPD")),SMR_0160_ - 1 x_Lane("VISALIA",_Cust("CDC_STOCKTON,_CA",_"STOCKTON,_CA",_"PPD")),SMR_0160_ = 0
inout_con_SHELBYVILLE,SMR_0160_: 1 y_Supply("KENTON",_"SMR_0160"),SHELBYVILLE_ + 1 y_Supply("VISALIA",_"SMR_0160"),SHELBYVILLE_ - 1 x_Lane("SHELBYVILLE",_Cust("NORTH_AMERICAN_CORP.",_"GLENVIEW,_IL",_"PPD")),SMR_0160_ - 1 x_Lane("SHELBYVILLE",_Cust("HT_BERRY",_"CANTON,_MA",_"PPD")),SMR_0160_ - 1 x_Lane("SHELBYVILLE",_Cust("CDC_STOCKTON,_CA",_"STOCKTON,_CA",_"PPD")),SMR_0160_ = 0
inout_con_CLARKSVILLE,SMR_0160_: 1 y_Supply("KENTON",_"SMR_0160"),CLARKSVILLE_ + 1 y_Supply("VISALIA",_"SMR_0160"),CLARKSVILLE_ - 1 x_Lane("CLARKSVILLE",_Cust("NORTH_AMERICAN_CORP.",_"GLENVIEW,_IL",_"PPD")),SMR_0160_ - 1 x_Lane("CLARKSVILLE",_Cust("HT_BERRY",_"CANTON,_MA",_"PPD")),SMR_0160_ - 1 x_Lane("CLARKSVILLE",_Cust("CDC_STOCKTON,_CA",_"STOCKTON,_CA",_"PPD")),SMR_0160_ = 0
inout_con_PITTSTON,SMR_0160_: 1 y_Supply("KENTON",_"SMR_0160"),PITTSTON_ + 1 y_Supply("VISALIA",_"SMR_0160"),PITTSTON_ - 1 x_Lane("PITTSTON",_Cust("NORTH_AMERICAN_CORP.",_"GLENVIEW,_IL",_"PPD")),SMR_0160_ - 1 x_Lane("PITTSTON",_Cust("HT_BERRY",_"CANTON,_MA",_"PPD")),SMR_0160_ - 1 x_Lane("PITTSTON",_Cust("CDC_STOCKTON,_CA",_"STOCKTON,_CA",_"PPD")),SMR_0160_ = 0
maxship_con_Cust("NORTH_AMERICAN_CORP.",_"GLENVIEW,_IL",_"PPD")_: 1 z_Lane("KENTON",_Cust("NORTH_AMERICAN_CORP.",_"GLENVIEW,_IL",_"PPD"))_ + 1 z_Lane("VISALIA",_Cust("NORTH_AMERICAN_CORP.",_"GLENVIEW,_IL",_"PPD"))_ + 1 z_Lane("SHELBYVILLE",_Cust("NORTH_AMERICAN_CORP.",_"GLENVIEW,_IL",_"PPD"))_ + 1 z_Lane("CLARKSVILLE",_Cust("NORTH_AMERICAN_CORP.",_"GLENVIEW,_IL",_"PPD"))_ + 1 z_Lane("PITTSTON",_Cust("NORTH_AMERICAN_CORP.",_"GLENVIEW,_IL",_"PPD"))_ = 1
maxship_con_Cust("HT_BERRY",_"CANTON,_MA",_"PPD")_: 1 z_Lane("KENTON",_Cust("HT_BERRY",_"CANTON,_MA",_"PPD"))_ + 1 z_Lane("VISALIA",_Cust("HT_BERRY",_"CANTON,_MA",_"PPD"))_ + 1 z_Lane("SHELBYVILLE",_Cust("HT_BERRY",_"CANTON,_MA",_"PPD"))_ + 1 z_Lane("CLARKSVILLE",_Cust("HT_BERRY",_"CANTON,_MA",_"PPD"))_ + 1 z_Lane("PITTSTON",_Cust("HT_BERRY",_"CANTON,_MA",_"PPD"))_ = 1
maxship_con_Cust("CDC_STOCKTON,_CA",_"STOCKTON,_CA",_"PPD")_: 1 z_Lane("KENTON",_Cust("CDC_STOCKTON,_CA",_"STOCKTON,_CA",_"PPD"))_ + 1 z_Lane("VISALIA",_Cust("CDC_STOCKTON,_CA",_"STOCKTON,_CA",_"PPD"))_ + 1 z_Lane("SHELBYVILLE",_Cust("CDC_STOCKTON,_CA",_"STOCKTON,_CA",_"PPD"))_ + 1 z_Lane("CLARKSVILLE",_Cust("CDC_STOCKTON,_CA",_"STOCKTON,_CA",_"PPD"))_ + 1 z_Lane("PITTSTON",_Cust("CDC_STOCKTON,_CA",_"STOCKTON,_CA",_"PPD"))_ = 1
Bounds
y_Supply("KENTON",_"SMR_0160"),KENTON_ >= 0
y_Supply("KENTON",_"LHRDS016"),KENTON_ >= 0
y_Supply("VISALIA",_"LHRDS016"),KENTON_ >= 0
y_Supply("PITTSTON",_"LHRDS016"),KENTON_ >= 0
y_Supply("VISALIA",_"SMR_0160"),KENTON_ >= 0
y_Supply("KENTON",_"SMR_0160"),VISALIA_ >= 0
y_Supply("KENTON",_"LHRDS016"),VISALIA_ >= 0
y_Supply("VISALIA",_"LHRDS016"),VISALIA_ >= 0
y_Supply("PITTSTON",_"LHRDS016"),VISALIA_ >= 0
y_Supply("VISALIA",_"SMR_0160"),VISALIA_ >= 0
y_Supply("KENTON",_"SMR_0160"),SHELBYVILLE_ >= 0
y_Supply("KENTON",_"LHRDS016"),SHELBYVILLE_ >= 0
y_Supply("VISALIA",_"LHRDS016"),SHELBYVILLE_ >= 0
y_Supply("PITTSTON",_"LHRDS016"),SHELBYVILLE_ >= 0
y_Supply("VISALIA",_"SMR_0160"),SHELBYVILLE_ >= 0
y_Supply("KENTON",_"SMR_0160"),CLARKSVILLE_ >= 0
y_Supply("KENTON",_"LHRDS016"),CLARKSVILLE_ >= 0
y_Supply("VISALIA",_"LHRDS016"),CLARKSVILLE_ >= 0
y_Supply("PITTSTON",_"LHRDS016"),CLARKSVILLE_ >= 0
y_Supply("VISALIA",_"SMR_0160"),CLARKSVILLE_ >= 0
y_Supply("KENTON",_"SMR_0160"),PITTSTON_ >= 0
y_Supply("KENTON",_"LHRDS016"),PITTSTON_ >= 0
y_Supply("VISALIA",_"LHRDS016"),PITTSTON_ >= 0
y_Supply("PITTSTON",_"LHRDS016"),PITTSTON_ >= 0
y_Supply("VISALIA",_"SMR_0160"),PITTSTON_ >= 0
x_Lane("KENTON",_Cust("NORTH_AMERICAN_CORP.",_"GLENVIEW,_IL",_"PPD")),LHRDS016_ >= 0
x_Lane("KENTON",_Cust("HT_BERRY",_"CANTON,_MA",_"PPD")),LHRDS016_ >= 0
x_Lane("KENTON",_Cust("CDC_STOCKTON,_CA",_"STOCKTON,_CA",_"PPD")),LHRDS016_ >= 0
x_Lane("VISALIA",_Cust("NORTH_AMERICAN_CORP.",_"GLENVIEW,_IL",_"PPD")),LHRDS016_ >= 0
x_Lane("VISALIA",_Cust("HT_BERRY",_"CANTON,_MA",_"PPD")),LHRDS016_ >= 0
x_Lane("VISALIA",_Cust("CDC_STOCKTON,_CA",_"STOCKTON,_CA",_"PPD")),LHRDS016_ >= 0
x_Lane("SHELBYVILLE",_Cust("NORTH_AMERICAN_CORP.",_"GLENVIEW,_IL",_"PPD")),LHRDS016_ >= 0
x_Lane("SHELBYVILLE",_Cust("HT_BERRY",_"CANTON,_MA",_"PPD")),LHRDS016_ >= 0
x_Lane("SHELBYVILLE",_Cust("CDC_STOCKTON,_CA",_"STOCKTON,_CA",_"PPD")),LHRDS016_ >= 0
x_Lane("CLARKSVILLE",_Cust("NORTH_AMERICAN_CORP.",_"GLENVIEW,_IL",_"PPD")),LHRDS016_ >= 0
x_Lane("CLARKSVILLE",_Cust("HT_BERRY",_"CANTON,_MA",_"PPD")),LHRDS016_ >= 0
x_Lane("CLARKSVILLE",_Cust("CDC_STOCKTON,_CA",_"STOCKTON,_CA",_"PPD")),LHRDS016_ >= 0
x_Lane("PITTSTON",_Cust("NORTH_AMERICAN_CORP.",_"GLENVIEW,_IL",_"PPD")),LHRDS016_ >= 0
x_Lane("PITTSTON",_Cust("HT_BERRY",_"CANTON,_MA",_"PPD")),LHRDS016_ >= 0
x_Lane("PITTSTON",_Cust("CDC_STOCKTON,_CA",_"STOCKTON,_CA",_"PPD")),LHRDS016_ >= 0
x_Lane("KENTON",_Cust("NORTH_AMERICAN_CORP.",_"GLENVIEW,_IL",_"PPD")),SMR_0160_ >= 0
x_Lane("KENTON",_Cust("HT_BERRY",_"CANTON,_MA",_"PPD")),SMR_0160_ >= 0
x_Lane("KENTON",_Cust("CDC_STOCKTON,_CA",_"STOCKTON,_CA",_"PPD")),SMR_0160_ >= 0
x_Lane("VISALIA",_Cust("NORTH_AMERICAN_CORP.",_"GLENVIEW,_IL",_"PPD")),SMR_0160_ >= 0
x_Lane("VISALIA",_Cust("HT_BERRY",_"CANTON,_MA",_"PPD")),SMR_0160_ >= 0
x_Lane("VISALIA",_Cust("CDC_STOCKTON,_CA",_"STOCKTON,_CA",_"PPD")),SMR_0160_ >= 0
x_Lane("SHELBYVILLE",_Cust("NORTH_AMERICAN_CORP.",_"GLENVIEW,_IL",_"PPD")),SMR_0160_ >= 0
x_Lane("SHELBYVILLE",_Cust("HT_BERRY",_"CANTON,_MA",_"PPD")),SMR_0160_ >= 0
x_Lane("SHELBYVILLE",_Cust("CDC_STOCKTON,_CA",_"STOCKTON,_CA",_"PPD")),SMR_0160_ >= 0
x_Lane("CLARKSVILLE",_Cust("NORTH_AMERICAN_CORP.",_"GLENVIEW,_IL",_"PPD")),SMR_0160_ >= 0
x_Lane("CLARKSVILLE",_Cust("HT_BERRY",_"CANTON,_MA",_"PPD")),SMR_0160_ >= 0
x_Lane("CLARKSVILLE",_Cust("CDC_STOCKTON,_CA",_"STOCKTON,_CA",_"PPD")),SMR_0160_ >= 0
x_Lane("PITTSTON",_Cust("NORTH_AMERICAN_CORP.",_"GLENVIEW,_IL",_"PPD")),SMR_0160_ >= 0
x_Lane("PITTSTON",_Cust("HT_BERRY",_"CANTON,_MA",_"PPD")),SMR_0160_ >= 0
x_Lane("PITTSTON",_Cust("CDC_STOCKTON,_CA",_"STOCKTON,_CA",_"PPD")),SMR_0160_ >= 0
Binary
z_Lane("KENTON",_Cust("NORTH_AMERICAN_CORP.",_"GLENVIEW,_IL",_"PPD"))_
z_Lane("KENTON",_Cust("HT_BERRY",_"CANTON,_MA",_"PPD"))_
z_Lane("KENTON",_Cust("CDC_STOCKTON,_CA",_"STOCKTON,_CA",_"PPD"))_
z_Lane("VISALIA",_Cust("NORTH_AMERICAN_CORP.",_"GLENVIEW,_IL",_"PPD"))_
z_Lane("VISALIA",_Cust("HT_BERRY",_"CANTON,_MA",_"PPD"))_
z_Lane("VISALIA",_Cust("CDC_STOCKTON,_CA",_"STOCKTON,_CA",_"PPD"))_
z_Lane("SHELBYVILLE",_Cust("NORTH_AMERICAN_CORP.",_"GLENVIEW,_IL",_"PPD"))_
z_Lane("SHELBYVILLE",_Cust("HT_BERRY",_"CANTON,_MA",_"PPD"))_
z_Lane("SHELBYVILLE",_Cust("CDC_STOCKTON,_CA",_"STOCKTON,_CA",_"PPD"))_
z_Lane("CLARKSVILLE",_Cust("NORTH_AMERICAN_CORP.",_"GLENVIEW,_IL",_"PPD"))_
z_Lane("CLARKSVILLE",_Cust("HT_BERRY",_"CANTON,_MA",_"PPD"))_
z_Lane("CLARKSVILLE",_Cust("CDC_STOCKTON,_CA",_"STOCKTON,_CA",_"PPD"))_
z_Lane("PITTSTON",_Cust("NORTH_AMERICAN_CORP.",_"GLENVIEW,_IL",_"PPD"))_
z_Lane("PITTSTON",_Cust("HT_BERRY",_"CANTON,_MA",_"PPD"))_
z_Lane("PITTSTON",_Cust("CDC_STOCKTON,_CA",_"STOCKTON,_CA",_"PPD"))_
r_KENTON_
r_VISALIA_
r_SHELBYVILLE_
r_CLARKSVILLE_
r_PITTSTON_
End
